networks/zoo_134_885/zoo_134_885-lower.txt
Number of groups: 66
Flow 6: {4 3 0} {3 70 1} 
Flow 16: {42 18 0} {18 39 1} {39 38 2} {38 34 3} {34 22 4} 
Flow 19: {15 30 0} {30 97 1} 
Flow 68: {8 5 0} {5 46 1} {46 37 2} 
Flow 76: {8 35 0} {35 63 1} {63 62 2} {62 61 3} {61 128 4} 
Flow 77: {2 64 0} {64 131 1} 
Flow 91: {41 24 0} {24 22 1} {22 89 2} 
Flow 92: {43 18 0} {18 17 1} {17 26 2} {26 93 3} 
Flow 93: {13 10 0} {10 27 1} {27 94 2} 
Flow 117: {46 9 0} {9 76 1} 
Flow 129: {32 99 0} 
Flow 137: {46 113 0} 
Flow 138: {56 49 0} {49 116 1} 
Flow 152: {5 11 0} {11 63 1} {63 2 2} {2 69 3} 
Flow 171: {33 43 0} {43 40 1} {40 41 2} {41 108 3} 
Flow 173: {16 29 0} {29 31 1} {31 44 2} 
Flow 274: {22 34 0} {34 38 1} {38 39 2} {39 18 3} {18 85 4} 
Flow 276: {22 24 0} {24 41 1} {41 40 2} {40 43 3} 
Flow 287: {23 34 0} 
Flow 317: {21 20 0} {20 19 1} {19 48 2} {48 54 3} {54 121 4} 
Flow 354: {27 10 0} {10 33 1} {33 42 2} {42 109 3} 
Flow 373: {64 65 0} {65 67 1} {67 66 2} {66 58 3} {58 125 4} 
Flow 425: {35 36 0} {36 37 1} 
Flow 442: {31 42 0} {42 33 1} {33 10 2} {10 77 3} 
Flow 446: {36 32 0} 
Flow 448: {36 35 0} 
Flow 468: {37 46 0} {46 5 1} {5 6 2} {6 73 3} 
Flow 470: {37 32 0} {32 63 1} {63 11 2} {11 78 3} 
Flow 476: {37 36 0} {36 103 1} 
Flow 513: {10 13 0} {13 16 1} {16 83 2} 
Flow 527: {43 33 0} {33 45 1} {45 44 2} {44 111 3} 
Flow 545: {44 45 0} {45 33 1} {33 100 2} 
Flow 546: {44 31 0} {31 15 1} {15 12 2} {12 5 3} {5 8 4} 
Flow 563: {45 42 0} {42 31 1} {31 98 2} 
Flow 570: {17 50 0} {50 51 1} {51 52 2} {52 119 3} 
Flow 581: {47 55 0} {55 54 1} 
Flow 584: {51 50 0} {50 64 1} {64 2 2} {2 63 3} 
Flow 586: {50 17 0} {17 18 1} {18 42 2} {42 45 3} {45 112 4} 
Flow 591: {20 21 0} {21 25 1} {25 26 2} {26 17 3} {17 84 4} 
Flow 602: {55 47 0} {47 52 1} {52 51 2} {51 118 3} 
Flow 606: {58 3 0} {3 60 1} {60 127 2} 
Flow 613: {49 6 0} {6 5 1} {5 72 2} 
Flow 617: {56 12 0} {12 15 1} {15 82 2} 
Flow 623: {49 56 0} {56 30 1} 
Flow 635: {62 57 0} {57 59 1} {59 3 2} 
Flow 650: {53 3 0} {3 59 1} {59 57 2} {57 62 3} 
Flow 688: {54 67 0} {67 134 1} 
Flow 717: {54 48 0} {48 19 1} {19 20 2} {20 87 3} 
Flow 728: {59 66 0} {66 67 1} {67 54 2} {54 55 3} {55 122 4} 
Flow 746: {60 61 0} {61 62 1} {62 63 2} {63 32 3} {32 36 4} 
Flow 747: {32 37 0} {37 104 1} 
Flow 778: {61 60 0} {60 3 1} {3 58 2} {58 66 3} {66 133 4} 
Flow 816: {63 35 0} {35 8 1} {8 1 2} {1 68 3} 
Flow 824: {12 79 0} 
Flow 825: {15 31 0} {31 29 1} {29 16 2} {16 13 3} {13 80 4} 
Flow 831: {26 25 0} {25 21 1} {21 88 2} 
Flow 835: {29 96 0} 
Flow 842: {39 106 0} 
Flow 843: {40 107 0} 
Flow 846: {18 43 0} {43 110 1} 
Flow 850: {52 47 0} {47 114 1} 
Flow 851: {6 49 0} 
Flow 857: {11 5 0} {5 12 1} {12 56 2} {56 123 3} 
Flow 861: {62 129 0} 
Flow 879: {65 64 0} {64 50 1} {50 117 2} 
Flow 884: {67 65 0} {65 132 1} 
Time taken running everything: 4 seconds
